p cnf 386 460
-19 -13 15 21 22 0
-19 -13 15 21 -22 0
-19 -13 15 -21 23 0
-19 -13 15 -21 -23 0
15 -18 -6 24 25 0
15 -18 -6 24 -25 0
15 -18 -6 -24 26 0
15 -18 -6 -24 -26 0
20 3 -17 27 28 0
20 3 -17 27 -28 0
20 3 -17 -27 29 0
20 3 -17 -27 -29 0
-15 2 -17 30 31 0
-15 2 -17 30 -31 0
-15 2 -17 -30 32 0
-15 2 -17 -30 -32 0
-10 1 15 33 34 0
-10 1 15 33 -34 0
-10 1 15 -33 35 0
-10 1 15 -33 -35 0
14 -2 20 36 37 0
14 -2 20 36 -37 0
14 -2 20 -36 38 0
14 -2 20 -36 -38 0
-3 -15 13 39 40 0
-3 -15 13 39 -40 0
-3 -15 13 -39 41 0
-3 -15 13 -39 -41 0
-12 -17 5 42 43 0
-12 -17 5 42 -43 0
-12 -17 5 -42 44 0
-12 -17 5 -42 -44 0
11 -20 18 45 46 0
11 -20 18 45 -46 0
11 -20 18 -45 47 0
11 -20 18 -45 -47 0
11 -1 19 48 49 0
11 -1 19 48 -49 0
11 -1 19 -48 50 0
11 -1 19 -48 -50 0
11 -9 -17 51 52 0
11 -9 -17 51 -52 0
11 -9 -17 -51 53 0
11 -9 -17 -51 -53 0
-1 -10 11 54 55 0
-1 -10 11 54 -55 0
-1 -10 11 -54 56 0
-1 -10 11 -54 -56 0
12 3 17 57 58 0
12 3 17 57 -58 0
12 3 17 -57 59 0
12 3 17 -57 -59 0
9 -2 -8 60 61 0
9 -2 -8 60 -61 0
9 -2 -8 -60 62 0
9 -2 -8 -60 -62 0
-9 -3 -4 63 64 0
-9 -3 -4 63 -64 0
-9 -3 -4 -63 65 0
-9 -3 -4 -63 -65 0
-6 4 9 66 67 0
-6 4 9 66 -67 0
-6 4 9 -66 68 0
-6 4 9 -66 -68 0
13 11 -17 69 70 0
13 11 -17 69 -70 0
13 11 -17 -69 71 0
13 11 -17 -69 -71 0
19 -11 15 72 73 0
19 -11 15 72 -73 0
19 -11 15 -72 74 0
19 -11 15 -72 -74 0
17 16 9 75 76 0
17 16 9 75 -76 0
17 16 9 -75 77 0
17 16 9 -75 -77 0
-13 -15 10 78 79 0
-13 -15 10 78 -79 0
-13 -15 10 -78 80 0
-13 -15 10 -78 -80 0
-9 16 7 81 82 0
-9 16 7 81 -82 0
-9 16 7 -81 83 0
-9 16 7 -81 -83 0
-4 20 19 84 85 0
-4 20 19 84 -85 0
-4 20 19 -84 86 0
-4 20 19 -84 -86 0
-18 -5 -13 87 88 0
-18 -5 -13 87 -88 0
-18 -5 -13 -87 89 0
-18 -5 -13 -87 -89 0
-9 -7 2 90 91 0
-9 -7 2 90 -91 0
-9 -7 2 -90 92 0
-9 -7 2 -90 -92 0
6 -7 18 93 94 0
6 -7 18 93 -94 0
6 -7 18 -93 95 0
6 -7 18 -93 -95 0
10 14 -8 96 97 0
10 14 -8 96 -97 0
10 14 -8 -96 98 0
10 14 -8 -96 -98 0
9 1 15 99 100 0
9 1 15 99 -100 0
9 1 15 -99 101 0
9 1 15 -99 -101 0
-7 12 -19 102 103 0
-7 12 -19 102 -103 0
-7 12 -19 -102 104 0
-7 12 -19 -102 -104 0
-13 14 17 105 106 0
-13 14 17 105 -106 0
-13 14 17 -105 107 0
-13 14 17 -105 -107 0
-3 -12 -17 108 109 0
-3 -12 -17 108 -109 0
-3 -12 -17 -108 110 0
-3 -12 -17 -108 -110 0
1 3 8 111 112 0
1 3 8 111 -112 0
1 3 8 -111 113 0
1 3 8 -111 -113 0
-4 18 -9 114 115 0
-4 18 -9 114 -115 0
-4 18 -9 -114 116 0
-4 18 -9 -114 -116 0
-19 -14 -7 117 118 0
-19 -14 -7 117 -118 0
-19 -14 -7 -117 119 0
-19 -14 -7 -117 -119 0
8 -5 4 120 121 0
8 -5 4 120 -121 0
8 -5 4 -120 122 0
8 -5 4 -120 -122 0
14 1 -2 123 124 0
14 1 -2 123 -124 0
14 1 -2 -123 125 0
14 1 -2 -123 -125 0
-4 1 18 126 127 0
-4 1 18 126 -127 0
-4 1 18 -126 128 0
-4 1 18 -126 -128 0
20 12 -5 129 130 0
20 12 -5 129 -130 0
20 12 -5 -129 131 0
20 12 -5 -129 -131 0
4 8 -5 132 133 0
4 8 -5 132 -133 0
4 8 -5 -132 134 0
4 8 -5 -132 -134 0
20 -13 -1 135 136 0
20 -13 -1 135 -136 0
20 -13 -1 -135 137 0
20 -13 -1 -135 -137 0
-13 11 20 138 139 0
-13 11 20 138 -139 0
-13 11 20 -138 140 0
-13 11 20 -138 -140 0
8 -5 2 141 142 0
8 -5 2 141 -142 0
8 -5 2 -141 143 0
8 -5 2 -141 -143 0
-12 16 1 144 145 0
-12 16 1 144 -145 0
-12 16 1 -144 146 0
-12 16 1 -144 -146 0
-8 -7 18 147 148 0
-8 -7 18 147 -148 0
-8 -7 18 -147 149 0
-8 -7 18 -147 -149 0
8 -16 -15 150 151 0
8 -16 -15 150 -151 0
8 -16 -15 -150 152 0
8 -16 -15 -150 -152 0
9 10 3 153 154 0
9 10 3 153 -154 0
9 10 3 -153 155 0
9 10 3 -153 -155 0
9 -11 7 156 157 0
9 -11 7 156 -157 0
9 -11 7 -156 158 0
9 -11 7 -156 -158 0
-19 9 18 159 160 0
-19 9 18 159 -160 0
-19 9 18 -159 161 0
-19 9 18 -159 -161 0
10 12 9 162 163 0
10 12 9 162 -163 0
10 12 9 -162 164 0
10 12 9 -162 -164 0
9 12 -20 165 166 0
9 12 -20 165 -166 0
9 12 -20 -165 167 0
9 12 -20 -165 -167 0
-15 -9 -8 168 169 0
-15 -9 -8 168 -169 0
-15 -9 -8 -168 170 0
-15 -9 -8 -168 -170 0
19 -6 -2 171 172 0
19 -6 -2 171 -172 0
19 -6 -2 -171 173 0
19 -6 -2 -171 -173 0
8 -15 -7 174 175 0
8 -15 -7 174 -175 0
8 -15 -7 -174 176 0
8 -15 -7 -174 -176 0
-7 4 3 177 178 0
-7 4 3 177 -178 0
-7 4 3 -177 179 0
-7 4 3 -177 -179 0
20 -18 -19 180 181 0
20 -18 -19 180 -181 0
20 -18 -19 -180 182 0
20 -18 -19 -180 -182 0
-15 6 -4 183 184 0
-15 6 -4 183 -184 0
-15 6 -4 -183 185 0
-15 6 -4 -183 -185 0
-10 9 -16 186 187 0
-10 9 -16 186 -187 0
-10 9 -16 -186 188 0
-10 9 -16 -186 -188 0
3 -18 -20 189 190 0
3 -18 -20 189 -190 0
3 -18 -20 -189 191 0
3 -18 -20 -189 -191 0
15 -14 9 192 193 0
15 -14 9 192 -193 0
15 -14 9 -192 194 0
15 -14 9 -192 -194 0
2 -17 7 195 196 0
2 -17 7 195 -196 0
2 -17 7 -195 197 0
2 -17 7 -195 -197 0
17 20 7 198 199 0
17 20 7 198 -199 0
17 20 7 -198 200 0
17 20 7 -198 -200 0
-17 -11 16 201 202 0
-17 -11 16 201 -202 0
-17 -11 16 -201 203 0
-17 -11 16 -201 -203 0
15 11 -9 204 205 0
15 11 -9 204 -205 0
15 11 -9 -204 206 0
15 11 -9 -204 -206 0
17 -16 -12 207 208 0
17 -16 -12 207 -208 0
17 -16 -12 -207 209 0
17 -16 -12 -207 -209 0
-14 1 7 210 211 0
-14 1 7 210 -211 0
-14 1 7 -210 212 0
-14 1 7 -210 -212 0
3 19 1 213 214 0
3 19 1 213 -214 0
3 19 1 -213 215 0
3 19 1 -213 -215 0
10 -3 13 216 217 0
10 -3 13 216 -217 0
10 -3 13 -216 218 0
10 -3 13 -216 -218 0
14 -9 -18 219 220 0
14 -9 -18 219 -220 0
14 -9 -18 -219 221 0
14 -9 -18 -219 -221 0
-20 -7 -15 222 223 0
-20 -7 -15 222 -223 0
-20 -7 -15 -222 224 0
-20 -7 -15 -222 -224 0
2 5 -15 225 226 0
2 5 -15 225 -226 0
2 5 -15 -225 227 0
2 5 -15 -225 -227 0
10 -7 15 228 229 0
10 -7 15 228 -229 0
10 -7 15 -228 230 0
10 -7 15 -228 -230 0
12 -6 -3 231 232 0
12 -6 -3 231 -232 0
12 -6 -3 -231 233 0
12 -6 -3 -231 -233 0
12 4 -6 234 235 0
12 4 -6 234 -235 0
12 4 -6 -234 236 0
12 4 -6 -234 -236 0
8 -5 -2 237 238 0
8 -5 -2 237 -238 0
8 -5 -2 -237 239 0
8 -5 -2 -237 -239 0
-17 19 18 240 241 0
-17 19 18 240 -241 0
-17 19 18 -240 242 0
-17 19 18 -240 -242 0
8 17 9 243 244 0
8 17 9 243 -244 0
8 17 9 -243 245 0
8 17 9 -243 -245 0
3 18 -10 246 247 0
3 18 -10 246 -247 0
3 18 -10 -246 248 0
3 18 -10 -246 -248 0
2 14 4 249 250 0
2 14 4 249 -250 0
2 14 4 -249 251 0
2 14 4 -249 -251 0
3 -10 14 252 253 0
3 -10 14 252 -253 0
3 -10 14 -252 254 0
3 -10 14 -252 -254 0
-18 -9 -8 255 256 0
-18 -9 -8 255 -256 0
-18 -9 -8 -255 257 0
-18 -9 -8 -255 -257 0
17 7 -11 258 259 0
17 7 -11 258 -259 0
17 7 -11 -258 260 0
17 7 -11 -258 -260 0
-9 -11 -15 261 262 0
-9 -11 -15 261 -262 0
-9 -11 -15 -261 263 0
-9 -11 -15 -261 -263 0
18 19 -11 264 265 0
18 19 -11 264 -265 0
18 19 -11 -264 266 0
18 19 -11 -264 -266 0
9 -8 -3 267 268 0
9 -8 -3 267 -268 0
9 -8 -3 -267 269 0
9 -8 -3 -267 -269 0
-11 10 4 270 271 0
-11 10 4 270 -271 0
-11 10 4 -270 272 0
-11 10 4 -270 -272 0
14 1 -10 273 274 0
14 1 -10 273 -274 0
14 1 -10 -273 275 0
14 1 -10 -273 -275 0
-1 -14 10 276 277 0
-1 -14 10 276 -277 0
-1 -14 10 -276 278 0
-1 -14 10 -276 -278 0
12 9 4 279 280 0
12 9 4 279 -280 0
12 9 4 -279 281 0
12 9 4 -279 -281 0
-16 17 -19 282 283 0
-16 17 -19 282 -283 0
-16 17 -19 -282 284 0
-16 17 -19 -282 -284 0
9 19 -17 285 286 0
9 19 -17 285 -286 0
9 19 -17 -285 287 0
9 19 -17 -285 -287 0
1 4 10 288 289 0
1 4 10 288 -289 0
1 4 10 -288 290 0
1 4 10 -288 -290 0
-5 -1 17 291 292 0
-5 -1 17 291 -292 0
-5 -1 17 -291 293 0
-5 -1 17 -291 -293 0
294 295 297 301 309 0
294 295 297 301 -309 0
294 295 297 -301 310 0
294 295 297 -301 -310 0
294 295 -297 302 311 0
294 295 -297 302 -311 0
294 295 -297 -302 312 0
294 295 -297 -302 -312 0
294 -295 298 303 313 0
294 -295 298 303 -313 0
294 -295 298 -303 314 0
294 -295 298 -303 -314 0
294 -295 -298 304 315 0
294 -295 -298 304 -315 0
294 -295 -298 -304 316 0
294 -295 -298 -304 -316 0
-294 296 299 305 317 0
-294 296 299 305 -317 0
-294 296 299 -305 318 0
-294 296 299 -305 -318 0
-294 296 -299 306 319 0
-294 296 -299 306 -319 0
-294 296 -299 -306 320 0
-294 296 -299 -306 -320 0
-294 -296 300 307 321 0
-294 -296 300 307 -321 0
-294 -296 300 -307 322 0
-294 -296 300 -307 -322 0
-294 -296 -300 308 323 0
-294 -296 -300 308 -323 0
-294 -296 -300 -308 324 0
-294 -296 -300 -308 -324 0
325 326 328 332 340 0
325 326 328 332 -340 0
325 326 328 -332 341 0
325 326 328 -332 -341 0
325 326 -328 333 342 0
325 326 -328 333 -342 0
325 326 -328 -333 343 0
325 326 -328 -333 -343 0
325 -326 329 334 344 0
325 -326 329 334 -344 0
325 -326 329 -334 345 0
325 -326 329 -334 -345 0
325 -326 -329 335 346 0
325 -326 -329 335 -346 0
325 -326 -329 -335 347 0
325 -326 -329 -335 -347 0
-325 327 330 336 348 0
-325 327 330 336 -348 0
-325 327 330 -336 349 0
-325 327 330 -336 -349 0
-325 327 -330 337 350 0
-325 327 -330 337 -350 0
-325 327 -330 -337 351 0
-325 327 -330 -337 -351 0
-325 -327 331 338 352 0
-325 -327 331 338 -352 0
-325 -327 331 -338 353 0
-325 -327 331 -338 -353 0
-325 -327 -331 339 354 0
-325 -327 -331 339 -354 0
-325 -327 -331 -339 355 0
-325 -327 -331 -339 -355 0
356 357 359 363 371 0
356 357 359 363 -371 0
356 357 359 -363 372 0
356 357 359 -363 -372 0
356 357 -359 364 373 0
356 357 -359 364 -373 0
356 357 -359 -364 374 0
356 357 -359 -364 -374 0
356 -357 360 365 375 0
356 -357 360 365 -375 0
356 -357 360 -365 376 0
356 -357 360 -365 -376 0
356 -357 -360 366 377 0
356 -357 -360 366 -377 0
356 -357 -360 -366 378 0
356 -357 -360 -366 -378 0
-356 358 361 367 379 0
-356 358 361 367 -379 0
-356 358 361 -367 380 0
-356 358 361 -367 -380 0
-356 358 -361 368 381 0
-356 358 -361 368 -381 0
-356 358 -361 -368 382 0
-356 358 -361 -368 -382 0
-356 -358 362 369 383 0
-356 -358 362 369 -383 0
-356 -358 362 -369 384 0
-356 -358 362 -369 -384 0
-356 -358 -362 370 385 0
-356 -358 -362 370 -385 0
-356 -358 -362 -370 386 0
-356 -358 -362 -370 -386 0

